HOPG AB graphite unit cell for slab generation
1.0
  2.4600000000  0.0000000000  0.0000000000
  1.2300000000  2.1304224933  0.0000000000
  0.0000000000  0.0000000000  6.7080000000
C
4
Direct
  0.0000000000  0.0000000000  0.0000000000
  0.3333333333  0.6666666667  0.0000000000
  0.0000000000  0.0000000000  0.5000000000
  0.6666666667  0.3333333333  0.5000000000
