NO_HOPG_443         ! Comment line in POSCAR      
      1.0000000000000000
      9.8654639999999993      0.0000000000000000      0.0000000000000000
     -4.9327329999999998      8.5437419999999999      0.0000000000000000
      0.0000000000000000      0.0000000000000000     26.7272740000000013
N O C   
           1           1          96
Selective dynamics
Direct
      0.2086811204500988      0.0488860355117524      0.5404744166722859  T  T  T
      0.2764754771194860     -0.0219468864971006      0.5298213334455415  T  T  T
      0.9996576559000000      0.0003419661000000      0.0031965512000000  F  F  F                                         
      0.9996581576000000      0.2503422982000000      0.0031965512000000  F  F  F                                         
      0.9996581718000001      0.5003416554000000      0.0031965550000000  F  F  F                                         
      0.9996577575000000      0.7503421829000000      0.0031965587000000  F  F  F                                         
      0.2496584846000000      0.0003419696000000      0.0031965587000000  F  F  F                                         
      0.2496579709000000      0.2503422982000000      0.0031965849000000  F  F  F                                         
      0.2496578867000000      0.5003416554000000      0.0031966073000000  F  F  F                                         
      0.2496585844000000      0.7503421829000000      0.0031965587000000  F  F  F                                         
      0.4996578635000000      0.0003419544000000      0.0031965550000000  F  F  F                                         
      0.4996583710000000      0.2503422982000000      0.0031965437000000  F  F  F                                         
      0.4996583852000000      0.5003416554000000      0.0031965811000000  F  F  F                                         
      0.4996579709000000      0.7503421829000000      0.0031966073000000  F  F  F                                         
      0.7496582619000000      0.0003419509000000      0.0031965512000000  F  F  F                                         
      0.7496577575000000      0.2503422982000000      0.0031965475000000  F  F  F                                         
      0.7496577716000000      0.5003416554000000      0.0031965437000000  F  F  F                                         
      0.7496583710000000      0.7503421829000000      0.0031965849000000  F  F  F                                         
      0.0829914597000000      0.1670087890000000      0.0032023543000000  F  F  F                                         
      0.0829915276000000      0.4170081462000000      0.0032023543000000  F  F  F                                         
      0.0829911133000000      0.6670086737000001      0.0032023431000000  F  F  F                                         
      0.0829917127000000      0.9170092013000000      0.0032023468000000  F  F  F                                         
      0.3329919135000000      0.1670087890000000      0.0032023730000000  F  F  F                                         
      0.3329909141000000      0.4170081462000000      0.0032023505000000  F  F  F                                         
      0.3329914080000000      0.6670086737000001      0.0032023468000000  F  F  F                                         
      0.3329921128000000      0.9170092013000000      0.0032023431000000  F  F  F                                         
      0.5829913000000000      0.1670087890000000      0.0032023805000000  F  F  F                                         
      0.5829913142000001      0.4170081462000000      0.0032023730000000  F  F  F                                         
      0.5829908999000000      0.6670086737000001      0.0032023505000000  F  F  F                                         
      0.5829914993000000      0.9170092013000000      0.0032023543000000  F  F  F                                         
      0.8329917001000000      0.1670087890000000      0.0032023580000000  F  F  F                                         
      0.8329907007000000      0.4170081462000000      0.0032023805000000  F  F  F                                         
      0.8329913001000000      0.6670086737000001      0.0032023730000000  F  F  F                                         
      0.8329913142000001      0.9170080309000000      0.0032023543000000  F  F  F                                         
      0.0172745026000000      0.0174506675000000      0.1146783621000000  T  T  T                                         
      0.0163050152000000      0.2660789626000000      0.1153712873000000  T  T  T                                         
      0.0194228635000000      0.5180891483000000      0.1138481241000000  T  T  T                                         
      0.0242361613000000      0.7709034312000000      0.1157405730000000  T  T  T                                         
      0.2700450585000000      0.0183954525000000      0.1154315254000000  T  T  T                                         
      0.2689053675000000      0.2666384364000000      0.1137007091000000  T  T  T                                         
      0.2705483319000000      0.5194620830000000      0.1143805390000000  T  T  T                                         
      0.2706106171000000      0.7698266197000000      0.1182810491000000  T  T  T                                         
      0.5159754795000000      0.0188369453000000      0.1151580220000000  T  T  T                                         
      0.5218212031000000      0.2692216137000000      0.1160926478000000  T  T  T                                         
      0.5228936050000000      0.5200601816000000      0.1140056411000000  T  T  T                                         
      0.5195320890000000      0.7705920923000000      0.1159070696000000  T  T  T                                         
      0.7648423953000000      0.0129796757000000      0.1149357771000000  T  T  T                                         
      0.7677424440000000      0.2660321447000000      0.1165274097000000  T  T  T                                         
      0.7747647026000000      0.5198260921000000      0.1146416955000000  T  T  T                                         
      0.7713633393000000      0.7667670704000000      0.1162250968000000  T  T  T                                         
      0.1843749462000000      0.1004928523000000      0.1138514914000000  T  T  T                                         
      0.1867509869000000      0.3510265187000000      0.1162714913000000  T  T  T                                         
      0.1879218970000000      0.6035247808999999      0.1169659131000000  T  T  T                                         
      0.1885031407000000      0.8553839788000001      0.1163624097000000  T  T  T                                         
      0.4342647526000000      0.1003081557000000      0.1160739403000000  T  T  T                                         
      0.4368354618000000      0.3518200820000000      0.1144901649000000  T  T  T                                         
      0.4386614062000000      0.6047151258000000      0.1160556070000000  T  T  T                                         
      0.4348704474000000      0.8517860237000000      0.1175417294000000  T  T  T                                         
      0.6843136959000000      0.0992699689000000      0.1149054710000000  T  T  T                                         
      0.6890410094000000      0.3543997479000000      0.1152336002000000  T  T  T                                         
      0.6909747410000000      0.6005284357000000      0.1149997567000000  T  T  T                                         
      0.6841377027000000      0.8502316697000000      0.1149484982000000  T  T  T                                         
      0.9302322891000000      0.0962475228000000      0.1139001309000000  T  T  T                                         
      0.9326038984000000      0.3475011313000000      0.1147786342000000  T  T  T                                         
      0.9403901657000000      0.6043476053000000      0.1157304709000000  T  T  T                                         
      0.9374184377000000      0.8520505448000000      0.1156829539000000  T  T  T                                         
      0.9701624870000000      0.4824958449000000      0.2690375388000000  T  T  T                                         
      0.9694511822000000      0.7349730390000000      0.2714021645000000  T  T  T                                         
      0.9708609796000000      0.2319534002000000      0.2687434572000000  T  T  T                                         
      0.9647959777000000      0.9817782454000000      0.2681620286000000  T  T  T                                         
      0.2169401098000000      0.9820123349000000      0.2712240693000000  T  T  T                                         
      0.2202107055000000      0.2338623998000000      0.2662867906000000  T  T  T                                         
      0.2159992732000000      0.7296650604000000      0.2702913143000000  T  T  T                                         
      0.2188666780000000      0.4823507094000000      0.2688216545000000  T  T  T                                         
      0.7180440693000000      0.4822231306000000      0.2707118585000000  T  T  T                                         
      0.7171479928000000      0.7312837890000000      0.2694255320000000  T  T  T                                         
      0.7191625798000000      0.2315273573000000      0.2695886612000000  T  T  T                                         
      0.7175572515999999      0.9819374262000000      0.2680950559000000  T  T  T                                         
      0.4675774569000000      0.9827731256000000      0.2697776068000000  T  T  T                                         
      0.4688697515000000      0.2358626943000000      0.2681781171000000  T  T  T                                         
      0.4680250463000000      0.7324284865000000      0.2698183891000000  T  T  T                                         
      0.4695857338000000      0.4825684126000000      0.2686880830000000  T  T  T                                         
      0.0509781805000000      0.6514873717000000      0.2706456340000000  T  T  T                                         
      0.0480404873000000      0.8976102072000000      0.2708731170000000  T  T  T                                         
      0.0500808484000000      0.3960746956000000      0.2690169606000000  T  T  T                                         
      0.0526502453000000      0.1510392056000000      0.2689713143000000  T  T  T                                         
      0.3021670144000000      0.1490974335000000      0.2695867905000000  T  T  T                                         
      0.3022665885000000      0.3988580194000000      0.2691610082000000  T  T  T                                         
      0.2996211238000000      0.8982832145000000      0.2699456000000000  T  T  T                                         
      0.3014996784000000      0.6478706894000000      0.2714466884000000  T  T  T                                         
      0.8017160182000000      0.6489486714000000      0.2695201918000000  T  T  T                                         
      0.8004525559000000      0.8987970408000000      0.2691033891000000  T  T  T                                         
      0.8020817354999999      0.3984319765000000      0.2682611783000000  T  T  T                                         
      0.8038987715000000      0.1494555904000000      0.2711761782000000  T  T  T                                         
      0.5514734193000000      0.1499272806000000      0.2700080830000000  T  T  T                                         
      0.5545047068000000      0.4013791629000000      0.2677863824000000  T  T  T                                         
      0.5507390232000000      0.8987139391000000      0.2710991033000000  T  T  T                                         
      0.5505830897000000      0.6507827624000000      0.2685425388000000  T  T  T                                         
 Cartesian
    0.0028474210513051   -0.0016923578859484   -0.0146861295688320
   -0.0024928326478262    0.0014816091171218   -0.0131928225363318
    0.0000000000000000    0.0000000000000000    0.0000000000000000
    0.0000000000000000    0.0000000000000000    0.0000000000000000
    0.0000000000000000    0.0000000000000000    0.0000000000000000
    0.0000000000000000    0.0000000000000000    0.0000000000000000
    0.0000000000000000    0.0000000000000000    0.0000000000000000
    0.0000000000000000    0.0000000000000000    0.0000000000000000
    0.0000000000000000    0.0000000000000000    0.0000000000000000
    0.0000000000000000    0.0000000000000000    0.0000000000000000
    0.0000000000000000    0.0000000000000000    0.0000000000000000
    0.0000000000000000    0.0000000000000000    0.0000000000000000
    0.0000000000000000    0.0000000000000000    0.0000000000000000
    0.0000000000000000    0.0000000000000000    0.0000000000000000
    0.0000000000000000    0.0000000000000000    0.0000000000000000
    0.0000000000000000    0.0000000000000000    0.0000000000000000
    0.0000000000000000    0.0000000000000000    0.0000000000000000
    0.0000000000000000    0.0000000000000000    0.0000000000000000
    0.0000000000000000    0.0000000000000000    0.0000000000000000
    0.0000000000000000    0.0000000000000000    0.0000000000000000
    0.0000000000000000    0.0000000000000000    0.0000000000000000
    0.0000000000000000    0.0000000000000000    0.0000000000000000
    0.0000000000000000    0.0000000000000000    0.0000000000000000
    0.0000000000000000    0.0000000000000000    0.0000000000000000
    0.0000000000000000    0.0000000000000000    0.0000000000000000
    0.0000000000000000    0.0000000000000000    0.0000000000000000
    0.0000000000000000    0.0000000000000000    0.0000000000000000
    0.0000000000000000    0.0000000000000000    0.0000000000000000
    0.0000000000000000    0.0000000000000000    0.0000000000000000
    0.0000000000000000    0.0000000000000000    0.0000000000000000
    0.0000000000000000    0.0000000000000000    0.0000000000000000
    0.0000000000000000    0.0000000000000000    0.0000000000000000
    0.0000000000000000    0.0000000000000000    0.0000000000000000
    0.0000000000000000    0.0000000000000000    0.0000000000000000
    0.0000000000000000    0.0000000000000000    0.0000000000000000
    0.0018491260000000    0.0046304808000000   -0.0005485827000000
    0.0077318090000000    0.0036756105000000   -0.0031455930000000
    0.0031012976000000   -0.0068719940000000    0.0029188528000000
    0.0054260772000000    0.0003297150000000    0.0018476091000000
    0.0001737721000000    0.0033572152000000   -0.0031551016000000
    0.0020454977000000   -0.0010168544000000    0.0018909678000000
    0.0015010850000000   -0.0074433953000000   -0.0022855948000000
    0.0009041378000000   -0.0005461027000000    0.0005459652000000
    0.0030525737000000   -0.0024472816000000   -0.0000388321000000
   -0.0026715887000000   -0.0015554286000000    0.0030669181000000
    0.0019938622000000   -0.0040620319000000    0.0010417508000000
    0.0068911130000000   -0.0002321858000000    0.0047175751000000
   -0.0031267183000000    0.0008845689000000   -0.0040914332000000
    0.0033550467000000   -0.0053326914000000    0.0001475135000000
    0.0007346782000000   -0.0030499064000000    0.0010166029000000
    0.0052684626000000   -0.0021884728000000   -0.0029284835000000
    0.0027414778000000   -0.0014277243000000   -0.0041912429000000
    0.0052749272000000   -0.0000009856000000   -0.0000398887000000
    0.0074299366000000   -0.0050920446000000   -0.0016775539000000
    0.0002637403000000    0.0025631459000000   -0.0054230536000000
    0.0009183702000000   -0.0026191183000000   -0.0039370968000000
   -0.0030384228000000   -0.0058513271000000    0.0003482904000000
    0.0063877685000000   -0.0081105849000000   -0.0007648502000000
    0.0051129757000000   -0.0071008009000000   -0.0089404386000000
    0.0068933222000000   -0.0031592043000000    0.0052460044000000
    0.0003605955000000   -0.0043298098000000   -0.0000317192000000
    0.0005012189000000    0.0025066543000000    0.0001873020000000
   -0.0002055872000000   -0.0014074142000000    0.0002772905000000
    0.0042370857000000   -0.0015087509000000   -0.0058596547000000
    0.0019479481000000   -0.0066197109000000    0.0008783883000000
   -0.0012383873000000   -0.0033141415000000   -0.0014195493000000
   -0.0010602080000000   -0.0023733100000000   -0.0003833897000000
   -0.0009858303000000    0.0011148366000000    0.0037034236000000
    0.0073164953000000   -0.0030152520000000    0.0038312297000000
   -0.0011127904000000    0.0013050288000000   -0.0010370983000000
   -0.0001061990000000    0.0008550841000000    0.0026786947000000
    0.0013215213000000   -0.0001116038000000    0.0026853832000000
    0.0017276318000000    0.0075647265000000    0.0005418747000000
    0.0001219024000000    0.0060394323000000   -0.0032146270000000
    0.0012951945000000    0.0009155074000000    0.0053060796000000
   -0.0024139913000000    0.0016658463000000   -0.0028026627000000
   -0.0000790419000000    0.0010315601000000    0.0032420228000000
   -0.0002775073000000    0.0037447259000000   -0.0019268541000000
    0.0010385337000000   -0.0012402503000000   -0.0014364592000000
   -0.0007711000000000    0.0011290792000000    0.0021106632000000
   -0.0006467808000000   -0.0004414481000000    0.0007164073000000
    0.0033208504000000    0.0034497254000000    0.0053242518000000
    0.0031138400000000   -0.0016651337000000   -0.0011160278000000
   -0.0012686335000000    0.0040445113000000    0.0062186906000000
   -0.0028627073000000    0.0014518012000000    0.0039212254000000
    0.0023421373000000   -0.0024109881000000    0.0007056526000000
    0.0023406001000000   -0.0038323292000000    0.0046699812000000
   -0.0006046162000000    0.0036214400000000    0.0042158696000000
    0.0035160921000000    0.0016249920000000    0.0040437885000000
   -0.0011010624000000   -0.0024031185000000    0.0010647587000000
    0.0034349433000000    0.0043072396000000    0.0056418734000000
    0.0000184903000000    0.0027073630000000    0.0063745236000000
    0.0050485535000000   -0.0014261361000000   -0.0035589521000000
   -0.0070150607000000    0.0005822954000000    0.0019096593000000
    0.0003725352000000    0.0014917393000000    0.0030153233000000
    0.0021675009000000   -0.0002396715000000    0.0016064329000000
   -0.0003393570000000    0.0005385488000000    0.0018248047000000
   -0.0003199937000000    0.0037175847000000    0.0002287040000000
